MEN = {A, B, C};
WOMEN = {X, Y, Z};

preferences_men = [|2, 1, 3,|
                    3, 2, 1,|
                    1, 3, 2,|];

preferences_women = [|2, 1, 3,|
                      3, 2, 1,|
                      1, 3, 2,|];